100 8
714 605
61 357
810 89
139 200
533 905
748 558
605 584
863 180
896 186
612 815
670 703
469 240
74 211
767 909
764 962
719 224
496 234
648 522
588 265
722 416
859 431
587 680
775 454
523 353
706 933
806 267
594 138
646 913
172 166
455 244
641 647
489 400
619 686
472 630
517 533
558 648
510 936
306 825
186 76
535 573
524 192
53 251
798 934
676 673
544 118
800 675
719 680
587 170
565 167
229 89
81 87
758 559
639 902
60 83
657 621
684 468
301 773
801 820
570 553
463 548
478 242
157 307
173 127
696 847
764 111
752 754
692 735
528 424
484 760
752 433
652 56
439 313
735 837
462 373
810 934
648 224
680 152
718 875
694 875
413 716
594 531
310 740
371 954
190 178
737 487
631 520
821 165
220 238
710 97
514 915
67 150
771 235
403 936
119 131
742 609
769 280
106 240
638 473
548 280
643 521
